% seed = 0

mint = 26;
% maxt = 129;

nActs = 62;
dur = [0,3,1,1,2,3,3,4,1,4,2,3,4,1,2,1,1,3,2,1,1,3,3,3,1,2,2,3,3,3,2,3,2,3,1,2,2,3,1,2,3,3,1,1,1,4,2,2,2,1,1,2,2,2,1,1,2,2,5,2,2,0];

nSkills = 15;
sreq = [| 0,0,0,0,0,0,0,0,0,0,0,0,0,0,0,
	| 0,0,1,0,0,1,0,0,0,0,0,0,0,0,0,
	| 0,0,0,0,2,0,0,0,0,1,1,0,0,0,0,
	| 0,0,2,0,0,1,0,0,0,0,1,0,0,0,0,
	| 0,0,0,0,0,0,1,0,0,0,0,1,0,0,0,
	| 0,0,0,0,1,0,0,0,0,0,1,2,0,0,0,
	| 1,0,0,1,1,0,0,0,0,0,1,0,0,0,0,
	| 0,0,1,0,0,0,0,0,0,0,0,1,0,0,0,
	| 0,0,1,0,0,1,0,0,0,0,0,2,0,0,0,
	| 0,0,0,0,0,0,0,0,0,0,0,0,0,1,0,
	| 0,0,0,0,0,2,0,0,0,0,0,0,1,0,0,
	| 0,0,2,1,0,1,0,0,0,0,0,0,0,0,0,
	| 0,0,0,0,0,1,0,0,0,1,0,0,0,0,0,
	| 1,0,0,0,0,0,0,0,0,1,0,0,0,0,0,
	| 0,0,0,0,0,2,0,0,1,0,0,0,1,0,0,
	| 0,0,0,1,1,0,0,0,0,0,0,1,0,0,0,
	| 1,0,0,0,1,1,0,0,0,0,0,0,0,0,0,
	| 0,0,0,0,1,1,0,0,0,0,0,0,0,0,0,
	| 0,0,0,0,0,0,1,0,0,0,1,1,0,0,0,
	| 0,0,0,0,0,0,0,0,0,1,0,0,0,0,0,
	| 0,0,0,0,1,0,0,1,0,0,1,0,0,0,0,
	| 1,0,0,0,1,0,0,0,0,0,1,0,0,0,0,
	| 0,0,0,0,0,0,0,0,0,0,1,0,0,0,0,
	| 1,0,1,0,0,1,0,0,0,0,0,0,0,0,0,
	| 0,1,0,0,1,1,0,0,0,0,0,0,0,0,0,
	| 0,0,0,0,0,1,0,0,0,0,1,1,0,1,0,
	| 0,0,0,0,0,0,0,0,0,0,1,1,0,0,0,
	| 0,0,1,1,0,2,0,0,0,0,0,0,0,0,0,
	| 1,0,0,0,1,0,0,0,0,0,0,1,0,0,0,
	| 1,0,0,0,0,0,0,0,0,0,1,2,0,0,0,
	| 0,0,0,1,0,0,0,0,0,0,0,0,0,0,0,
	| 0,0,0,0,0,1,0,0,0,0,1,1,0,0,0,
	| 0,0,0,0,0,1,0,0,1,0,0,1,0,0,0,
	| 0,0,0,0,0,0,0,0,0,0,1,1,1,0,0,
	| 0,0,0,1,0,0,0,0,0,1,1,1,0,0,0,
	| 0,0,0,1,0,1,0,0,0,0,0,0,0,0,0,
	| 0,0,0,0,1,1,0,0,0,0,0,0,0,0,0,
	| 0,0,0,0,0,0,0,0,0,1,0,0,0,0,0,
	| 0,0,0,0,1,0,0,0,1,0,0,1,0,0,0,
	| 0,1,0,0,0,1,0,0,0,1,0,1,0,0,0,
	| 0,0,0,0,0,2,0,0,0,0,0,0,0,0,0,
	| 0,0,0,0,0,0,0,0,0,1,0,0,0,0,0,
	| 0,0,0,0,1,0,0,0,0,0,0,1,0,0,0,
	| 0,0,0,0,0,1,0,0,0,0,1,1,0,0,0,
	| 0,0,0,0,0,0,0,0,0,0,1,1,0,0,0,
	| 0,0,0,0,0,0,0,0,0,0,1,0,0,0,0,
	| 1,0,0,0,0,2,0,0,0,1,0,0,0,0,0,
	| 0,0,1,0,0,0,0,0,0,0,0,0,0,0,0,
	| 0,0,0,0,0,1,0,0,0,0,0,0,0,0,0,
	| 0,0,1,0,1,1,0,0,0,0,0,0,0,0,0,
	| 0,0,0,0,2,0,0,0,0,0,0,2,0,0,0,
	| 0,0,0,1,0,0,0,1,0,1,0,1,0,0,1,
	| 0,0,0,0,0,2,0,0,0,1,1,0,0,0,0,
	| 0,0,0,1,1,0,0,0,0,0,1,1,0,0,0,
	| 0,0,0,0,0,1,0,0,0,1,0,0,0,0,0,
	| 0,0,0,0,1,0,0,0,0,2,1,0,0,0,0,
	| 0,0,1,0,0,0,0,0,0,1,1,0,0,0,0,
	| 0,0,0,0,0,1,0,0,0,1,0,1,1,0,0,
	| 0,0,0,0,0,2,0,0,0,0,1,0,0,0,0,
	| 0,0,2,0,0,1,0,0,0,0,0,0,0,0,0,
	| 0,0,0,1,0,0,0,0,0,1,0,1,0,0,0,
	| 0,0,0,0,0,0,0,0,0,0,0,0,0,0,0, |];

% SumOfsreq = 169;

nResources = 14;
mastery = [| false,false,false,true,true,true,false,false,false,false,false,false,false,false,false,
	| true,true,true,false,false,false,false,false,false,false,false,false,false,false,false,
	| false,false,false,true,true,true,true,true,true,false,false,false,false,false,false,
	| false,false,false,false,true,true,false,false,false,false,false,false,false,false,false,
	| false,false,true,false,false,false,false,false,false,true,true,true,false,false,false,
	| false,true,true,false,false,false,false,false,false,true,true,true,false,false,false,
	| false,false,false,false,false,false,false,false,false,true,true,true,true,true,true,
	| false,false,true,true,true,true,false,false,false,false,false,false,false,false,false,
	| false,false,false,false,false,false,false,false,false,false,false,true,false,false,false,
	| false,false,false,true,true,true,false,false,false,false,true,true,false,false,false,
	| false,false,false,false,false,false,false,false,false,true,true,true,false,false,false,
	| false,false,false,false,false,true,false,false,false,false,false,false,false,false,false,
	| false,false,false,false,false,false,false,false,true,true,true,true,false,false,false,
	| false,false,false,false,false,false,true,true,true,false,false,false,false,false,false, |];

nPrecs = 131;
pred = [1,1,1,2,2,3,3,3,4,4,4,5,5,5,6,6,6,7,7,7,8,8,9,9,9,10,10,10,11,11,11,12,12,13,13,13,14,14,15,15,15,16,16,17,17,17,18,19,20,20,20,21,21,21,22,22,22,23,23,24,24,24,25,25,25,26,26,26,27,28,28,29,29,30,30,31,31,31,32,32,33,33,34,34,34,35,35,35,36,37,38,38,38,39,39,39,40,40,40,41,41,41,42,43,43,43,44,45,45,46,47,47,47,48,48,49,50,51,52,52,52,53,54,55,55,56,57,58,59,60,61];
succ = [2,3,4,12,55,5,38,31,17,6,7,9,12,8,10,13,15,11,22,32,14,23,11,45,16,35,28,43,57,26,29,36,28,50,21,24,18,52,34,23,40,25,27,33,20,31,19,45,26,37,32,33,34,35,43,30,23,50,60,25,35,28,52,46,55,42,27,54,44,33,37,37,30,36,39,41,49,58,34,38,39,40,36,47,48,53,38,40,41,39,41,44,47,52,46,48,49,42,44,42,46,56,59,57,53,45,51,47,48,61,49,54,55,51,60,51,57,56,58,53,54,60,56,58,61,61,59,59,62,62,62];

nUnrels = 921;
unpred = [2,2,2,2,2,2,2,2,2,2,2,2,2,2,2,2,2,2,2,2,2,2,2,2,2,2,2,2,2,2,2,2,2,2,2,2,3,3,3,3,3,3,3,3,3,3,3,3,3,3,3,4,4,4,4,4,4,4,4,5,5,5,5,5,5,5,5,5,5,5,5,5,5,5,5,6,6,6,6,6,6,6,6,6,6,6,6,6,6,6,6,6,6,7,7,7,7,7,7,7,7,7,7,7,7,7,7,7,7,7,7,7,7,8,8,8,8,8,8,8,8,8,8,8,8,8,8,8,8,8,8,8,8,8,8,8,8,8,8,8,8,8,8,8,8,8,9,9,9,9,9,9,9,9,9,9,9,9,9,9,9,9,9,9,9,9,9,9,9,10,10,10,10,10,10,10,10,10,10,10,10,10,10,10,10,10,10,10,10,10,10,10,10,11,11,11,11,11,11,11,11,11,11,11,11,11,11,11,11,11,11,11,11,11,11,11,11,11,11,11,11,12,12,12,12,12,12,12,12,12,12,12,12,12,12,12,12,12,12,12,12,12,12,12,12,12,12,12,12,13,13,13,13,13,13,13,13,13,13,13,13,13,13,13,13,13,14,14,14,14,14,14,14,14,14,14,14,14,14,14,14,14,14,14,14,14,14,14,14,14,14,14,14,14,14,14,14,15,15,15,15,15,15,15,15,15,15,15,15,15,15,15,15,15,15,15,15,15,15,15,15,15,16,16,16,16,16,16,16,16,16,16,16,16,16,16,16,16,16,16,16,16,16,16,16,16,16,16,16,16,16,16,16,17,17,17,17,17,17,17,17,17,17,17,17,17,17,17,18,18,18,18,18,18,18,18,18,18,18,18,18,18,18,18,18,18,18,18,18,18,18,18,18,18,18,18,18,18,19,19,19,19,19,19,19,19,19,19,19,19,19,19,19,19,19,19,19,19,19,19,19,19,19,19,19,19,19,19,20,20,20,20,20,20,20,20,20,20,20,20,20,20,20,20,21,21,21,21,21,21,21,21,21,21,21,21,21,21,21,21,22,22,22,22,22,22,22,22,22,22,22,22,22,22,22,23,23,23,23,23,23,23,23,23,23,23,23,23,23,23,23,23,23,23,23,23,23,23,23,23,23,23,23,23,23,23,23,23,23,24,24,24,24,24,24,24,24,24,24,24,24,25,25,25,25,25,25,25,25,25,25,25,25,25,25,25,25,25,25,25,25,25,25,25,25,25,25,26,26,26,26,26,26,26,26,26,26,26,26,26,26,26,26,26,26,26,26,26,26,26,26,26,26,26,27,27,27,27,27,27,27,27,27,27,27,27,27,27,27,27,27,27,27,27,27,27,27,27,27,27,27,27,27,27,28,28,28,28,28,28,28,28,28,28,28,28,28,28,28,29,29,29,29,29,29,29,29,29,29,29,29,29,29,29,30,30,30,30,30,30,30,30,30,30,30,30,30,30,30,30,31,31,31,31,31,31,31,31,31,31,31,31,31,31,31,31,31,31,31,31,31,32,32,32,32,32,32,32,32,32,32,32,33,33,33,33,33,33,33,33,33,33,33,33,34,34,34,34,34,34,34,34,34,34,34,34,35,35,35,35,35,35,35,35,35,36,36,36,36,36,36,36,36,36,36,36,36,36,36,36,36,36,36,36,37,37,37,37,37,37,37,37,37,37,37,37,38,38,38,38,38,38,38,38,38,38,39,39,39,39,39,39,39,39,39,39,39,40,40,40,40,40,40,40,40,40,40,40,40,40,40,41,41,41,41,41,41,41,41,41,41,41,41,41,41,41,42,42,42,42,42,42,42,42,42,42,42,42,42,42,42,42,42,42,43,43,43,43,44,44,44,44,44,44,44,44,44,44,44,44,44,44,45,45,45,45,45,46,46,46,46,46,46,46,46,46,46,46,46,46,46,47,47,47,47,47,47,48,48,48,48,48,48,48,48,48,49,49,49,49,49,49,49,49,49,50,50,50,50,50,50,50,50,50,51,51,51,51,51,51,51,51,52,52,53,53,53,53,53,53,53,54,54,54,54,54,55,55,55,56,56,56,56,57,57,57,58,58,59,59,60];
unsucc = [3,4,5,6,7,8,9,10,11,13,14,15,16,17,18,19,20,21,22,23,24,25,26,27,29,30,31,32,34,35,38,43,45,47,50,57,4,6,7,10,13,15,17,20,21,22,24,32,34,35,43,5,8,9,12,14,16,18,19,6,7,10,13,15,17,20,21,22,24,31,32,34,35,38,43,7,8,9,11,12,14,16,17,18,19,20,22,26,27,29,30,31,32,8,9,10,12,13,14,15,16,17,18,19,20,21,24,25,28,31,33,35,40,9,10,11,12,13,15,16,17,20,21,22,24,25,26,27,28,29,30,31,32,33,34,35,36,37,38,39,40,41,42,43,44,46,10,12,13,14,15,17,18,19,20,21,22,23,24,28,31,32,33,34,35,38,40,43,50,11,12,13,14,15,16,17,18,19,20,21,22,23,24,25,26,27,29,30,31,32,34,36,50,12,13,14,15,16,17,18,19,20,21,22,23,24,25,28,31,32,33,34,35,38,40,43,45,47,49,50,55,13,14,15,16,17,18,19,20,21,22,23,24,25,26,27,29,30,31,32,34,35,38,43,45,47,50,55,57,14,15,16,17,18,19,20,22,23,26,27,29,30,31,32,43,45,15,16,17,20,21,22,23,24,25,26,27,28,29,30,31,32,33,34,35,36,37,38,39,40,41,42,43,44,46,50,57,16,17,18,19,20,21,22,24,25,26,27,28,29,30,31,32,33,35,37,38,39,43,45,52,53,17,18,19,20,21,22,23,24,26,28,29,30,31,32,33,34,35,36,37,38,39,40,41,42,43,45,47,48,49,50,57,18,19,21,22,23,24,25,28,29,30,35,43,45,50,57,20,21,22,23,24,25,26,27,28,29,30,31,32,33,34,35,36,37,38,39,40,41,42,43,44,46,50,52,53,57,20,21,22,23,24,25,26,27,28,29,30,31,32,33,34,35,36,37,38,39,40,41,42,43,44,46,50,52,53,57,21,22,23,24,25,28,29,30,31,33,35,40,43,45,50,57,22,23,24,25,26,27,28,29,30,31,32,37,43,45,50,57,24,25,26,27,28,29,31,32,33,34,35,37,38,40,44,24,25,26,27,28,29,30,31,32,33,34,35,36,37,38,39,40,41,42,43,44,45,46,47,48,49,51,52,53,54,55,56,58,61,26,27,29,30,31,32,34,36,43,45,50,57,26,27,28,29,30,31,32,33,34,35,36,37,38,39,40,41,42,43,44,45,47,48,49,50,51,57,28,29,30,31,32,33,34,35,36,37,38,39,40,41,43,45,46,47,48,49,50,52,53,55,57,58,60,28,29,30,31,32,33,34,35,36,37,38,39,40,41,42,43,45,46,47,48,49,50,52,53,54,55,57,58,59,60,29,30,31,32,34,35,36,38,41,43,45,47,50,55,57,31,32,33,34,35,38,40,43,44,45,47,49,50,55,57,31,32,33,34,35,37,38,40,43,44,45,47,49,50,55,57,32,33,34,35,36,37,38,39,40,43,44,45,47,48,50,52,53,54,55,57,60,33,35,37,39,40,43,45,50,52,53,57,34,35,36,37,38,41,43,45,47,50,55,57,35,37,38,39,40,43,44,45,50,52,53,57,36,37,39,43,45,48,50,52,57,37,38,39,40,43,44,45,47,48,49,50,51,52,53,54,55,57,58,60,38,40,41,42,43,44,45,47,49,50,55,57,39,40,43,45,48,50,52,53,57,60,40,41,42,43,44,45,47,49,50,55,57,41,43,45,46,47,48,50,52,53,54,55,57,58,60,43,44,45,47,48,49,50,51,52,53,54,55,57,58,60,43,44,45,46,47,48,49,50,51,52,53,54,55,56,57,58,60,61,44,46,50,52,45,46,47,48,49,50,52,53,54,55,57,58,59,60,46,50,52,53,57,47,48,49,50,51,52,53,54,55,56,57,58,59,60,48,50,52,53,57,60,49,50,52,53,54,55,57,58,59,50,52,53,54,55,57,58,59,60,51,52,53,54,55,56,58,60,61,52,53,54,55,57,58,59,60,55,57,54,55,56,57,58,59,61,55,57,58,59,60,56,57,60,57,58,59,60,58,60,61,60,61,60,61,61];

USEFUL_RES = [{},
	{1,2,3,4,5,6,8,10,12},
	{1,3,4,5,6,7,8,10,11,13},
	{1,2,3,4,5,6,7,8,10,11,12,13},
	{3,5,6,7,9,10,11,13,14},
	{1,3,4,5,6,7,8,9,10,11,13},
	{1,2,3,4,5,6,7,8,10,11,13},
	{2,5,6,7,8,9,10,11,13},
	{1,2,3,4,5,6,7,8,9,10,11,12,13},
	{7},
	{1,3,4,7,8,10,12},
	{1,2,3,4,5,6,8,10,12},
	{1,3,4,5,6,7,8,10,11,12,13},
	{2,5,6,7,11,13},
	{1,3,4,7,8,10,12,13,14},
	{1,3,4,5,6,7,8,9,10,11,13},
	{1,2,3,4,8,10,12},
	{1,3,4,8,10,12},
	{3,5,6,7,9,10,11,13,14},
	{5,6,7,11,13},
	{1,3,4,5,6,7,8,10,11,13,14},
	{1,2,3,4,5,6,7,8,10,11,13},
	{5,6,7,10,11,13},
	{1,2,3,4,5,6,8,10,12},
	{1,2,3,4,6,8,10,12},
	{1,3,4,5,6,7,8,9,10,11,12,13},
	{5,6,7,9,10,11,13},
	{1,2,3,4,5,6,8,10,12},
	{1,2,3,4,5,6,7,8,9,10,11,13},
	{2,5,6,7,9,10,11,13},
	{1,3,8,10},
	{1,3,4,5,6,7,8,9,10,11,12,13},
	{1,3,4,5,6,7,8,9,10,11,12,13,14},
	{5,6,7,9,10,11,13},
	{1,3,5,6,7,8,9,10,11,13},
	{1,3,4,8,10,12},
	{1,3,4,8,10,12},
	{5,6,7,11,13},
	{1,3,4,5,6,7,8,9,10,11,13,14},
	{1,2,3,4,5,6,7,8,9,10,11,12,13},
	{1,3,4,8,10,12},
	{5,6,7,11,13},
	{1,3,4,5,6,7,8,9,10,11,13},
	{1,3,4,5,6,7,8,9,10,11,12,13},
	{5,6,7,9,10,11,13},
	{5,6,7,10,11,13},
	{1,2,3,4,5,6,7,8,10,11,12,13},
	{2,5,6,8},
	{1,3,4,8,10,12},
	{1,2,3,4,5,6,8,10,12},
	{1,3,4,5,6,7,8,9,10,11,13},
	{1,3,5,6,7,8,9,10,11,13,14},
	{1,3,4,5,6,7,8,10,11,12,13},
	{1,3,4,5,6,7,8,9,10,11,13},
	{1,3,4,5,6,7,8,10,11,12,13},
	{1,3,4,5,6,7,8,10,11,13},
	{2,5,6,7,8,10,11,13},
	{1,3,4,5,6,7,8,9,10,11,12,13},
	{1,3,4,5,6,7,8,10,11,12,13},
	{1,2,3,4,5,6,8,10,12},
	{1,3,5,6,7,8,9,10,11,13},
	{}];

POTENTIAL_ACT = [{2,3,4,6,7,9,11,12,13,15,16,17,18,21,22,24,25,26,28,29,31,32,33,35,36,37,39,40,41,43,44,47,49,50,51,52,53,54,55,56,58,59,60,61},
	{2,4,7,8,9,12,14,17,22,24,25,28,29,30,40,47,48,50,57,60},
	{2,3,4,5,6,7,9,11,12,13,15,16,17,18,19,21,22,24,25,26,28,29,31,32,33,35,36,37,39,40,41,43,44,47,49,50,51,52,53,54,55,56,58,59,60,61},
	{2,3,4,6,7,9,11,12,13,15,16,17,18,21,22,24,25,26,28,29,32,33,36,37,39,40,41,43,44,47,49,50,51,53,54,55,56,58,59,60},
	{2,3,4,5,6,7,8,9,12,13,14,16,19,20,21,22,23,24,26,27,28,29,30,32,33,34,35,38,39,40,42,43,44,45,46,47,48,50,51,52,53,54,55,56,57,58,59,60,61},
	{2,3,4,5,6,7,8,9,12,13,14,16,19,20,21,22,23,24,25,26,27,28,29,30,32,33,34,35,38,39,40,42,43,44,45,46,47,48,50,51,52,53,54,55,56,57,58,59,60,61},
	{3,4,5,6,7,8,9,10,11,13,14,15,16,19,20,21,22,23,26,27,29,30,32,33,34,35,38,39,40,42,43,44,45,46,47,51,52,53,54,55,56,57,58,59,61},
	{2,3,4,6,7,8,9,11,12,13,15,16,17,18,21,22,24,25,26,28,29,31,32,33,35,36,37,39,40,41,43,44,47,48,49,50,51,52,53,54,55,56,57,58,59,60,61},
	{5,6,8,9,16,19,26,27,29,30,32,33,34,35,39,40,43,44,45,51,52,54,58,61},
	{2,3,4,5,6,7,8,9,11,12,13,15,16,17,18,19,21,22,23,24,25,26,27,28,29,30,31,32,33,34,35,36,37,39,40,41,43,44,45,46,47,49,50,51,52,53,54,55,56,57,58,59,60,61},
	{3,4,5,6,7,8,9,13,14,16,19,20,21,22,23,26,27,29,30,32,33,34,35,38,39,40,42,43,44,45,46,47,51,52,53,54,55,56,57,58,59,61},
	{2,4,9,11,12,13,15,17,18,24,25,26,28,32,33,36,37,40,41,44,47,49,50,53,55,58,59,60},
	{3,4,5,6,7,8,9,13,14,15,16,19,20,21,22,23,26,27,29,30,32,33,34,35,38,39,40,42,43,44,45,46,47,51,52,53,54,55,56,57,58,59,61},
	{5,15,19,21,33,39,52}];
